(set-info :source |printed by MathSAT|)
(declare-fun nS () Int)
(declare-fun call__main_.ast () Bool)
(declare-fun flby2 () Bool)
(declare-fun call__main_.diff0 () Int)
(declare-fun call__main_.call_controleur2.flby () Bool)
(declare-fun retard0 () Bool)
(declare-fun call__main_.call_controleur.flby () Bool)
(declare-fun call__main_.call_hypothese2.flby () Bool)
(declare-fun call__main_.call_hypothese.flby () Bool)
(declare-fun call__main_._H1_ () Bool)
(declare-fun ast () Bool)
(declare-fun call__main_.call_controleur.avance () Bool)
(declare-fun call__main_._H0_ () Bool)
(declare-fun retard1 () Bool)
(declare-fun call__main_.call_controleur2.diff () Int)
(declare-fun nB1 () Int)
(declare-fun call__main_.diff1 () Int)
(declare-fun call__main_.call_controleur.flby2 () Bool)
(declare-fun call__main_.retard0 () Bool)
(declare-fun call_Sofar.Sofar () Bool)
(declare-fun _OK_ () Bool)
(declare-fun call__main_.call_controleur.retard () Bool)
(declare-fun nB0 () Int)
(declare-fun call__main_.call_hypothese2.c () Int)
(declare-fun diff0 () Int)
(declare-fun call__main_.call_controleur2.retard () Bool)
(declare-fun call__main_.flby3 () Int)
(declare-fun call__main_.call_hypothese.ok () Bool)
(declare-fun flby () Bool)
(declare-fun call__main_.call_controleur.diff () Int)
(declare-fun avance0 () Bool)
(declare-fun call__main_.call_hypothese2.flby2 () Int)
(declare-fun call__main_.call_hypothese2.ok () Bool)
(declare-fun call__main_.avance1 () Bool)
(declare-fun call__main_.call_controleur2.avance () Bool)
(declare-fun call__main_.nB0 () Int)
(declare-fun call__main_.flby2 () Int)
(declare-fun call__main_.retard1 () Bool)
(declare-fun call__main_.flby () Int)
(declare-fun call__main_.call_hypothese.c () Int)
(declare-fun avance1 () Bool)
(declare-fun diff1 () Int)
(declare-fun call_Sofar.flby () Bool)
(declare-fun call__main_.call_controleur2.flby2 () Bool)
(declare-fun call__main_.avance0 () Bool)
(declare-fun call__main_.nS () Int)
(declare-fun pOK () Bool)
(declare-fun call__main_.call_hypothese.flby2 () Int)
(declare-fun call__main_.nB1 () Int)
(define-fun .def_680 () Bool (= call_Sofar.flby call_Sofar.Sofar))
(define-fun .def_678 () Bool (= call__main_.call_controleur2.flby2 call__main_.call_controleur2.retard))
(define-fun .def_676 () Bool (= call__main_.call_controleur2.flby call__main_.call_controleur2.avance))
(define-fun .def_671 () Int (* (- 1) call__main_.call_controleur2.diff))
(define-fun .def_659 () Int (* (- 1) call__main_.nS))
(define-fun .def_672 () Int (+ .def_659 .def_671))
(define-fun .def_673 () Int (+ call__main_.nB1 .def_672))
(define-fun .def_674 () Bool (= .def_673 0))
(define-fun .def_666 () Bool (= call__main_.call_controleur.flby2 call__main_.call_controleur.retard))
(define-fun .def_664 () Bool (= call__main_.call_controleur.flby call__main_.call_controleur.avance))
(define-fun .def_658 () Int (* (- 1) call__main_.call_controleur.diff))
(define-fun .def_660 () Int (+ .def_659 .def_658))
(define-fun .def_661 () Int (+ call__main_.nB0 .def_660))
(define-fun .def_662 () Bool (= .def_661 0))
(define-fun .def_653 () Bool (= call__main_.call_hypothese2.flby2 call__main_.call_hypothese2.c))
(define-fun .def_650 () Bool (= call__main_.call_hypothese2.flby call__main_.call_hypothese2.ok))
(define-fun .def_648 () Bool (= call__main_.call_hypothese.flby2 call__main_.call_hypothese.c))
(define-fun .def_645 () Bool (= call__main_.call_hypothese.flby call__main_.call_hypothese.ok))
(define-fun .def_643 () Bool (= call__main_._H1_ call__main_.call_hypothese2.ok))
(define-fun .def_640 () Bool (= call__main_._H0_ call__main_.call_hypothese.ok))
(define-fun .def_637 () Bool (= call__main_.retard1 call__main_.call_controleur2.retard))
(define-fun .def_634 () Bool (= call__main_.retard0 call__main_.call_controleur.retard))
(define-fun .def_631 () Bool (= call__main_.avance1 call__main_.call_controleur2.avance))
(define-fun .def_628 () Bool (= call__main_.avance0 call__main_.call_controleur.avance))
(define-fun .def_625 () Bool (= call__main_.diff1 call__main_.call_controleur2.diff))
(define-fun .def_622 () Bool (= call__main_.diff0 call__main_.call_controleur.diff))
(define-fun .def_619 () Bool (= call__main_.flby3 call__main_.nS))
(define-fun .def_617 () Bool (= call__main_.flby2 call__main_.nB1))
(define-fun .def_615 () Bool (= call__main_.flby call__main_.nB0))
(define-fun .def_612 () Bool (and call__main_._H0_ call__main_._H1_))
(define-fun .def_613 () Bool (= call__main_.ast .def_612))
(define-fun .def_608 () Bool (= ast call__main_.ast))
(define-fun .def_605 () Bool (= flby pOK))
(define-fun .def_602 () Bool (= retard1 call__main_.retard1))
(define-fun .def_598 () Bool (= retard0 call__main_.retard0))
(define-fun .def_594 () Bool (= avance1 call__main_.avance1))
(define-fun .def_590 () Bool (= avance0 call__main_.avance0))
(define-fun .def_586 () Bool (= diff1 call__main_.diff1))
(define-fun .def_582 () Bool (= diff0 call__main_.diff0))
(define-fun .def_579 () Bool (= nS call__main_.nS))
(define-fun .def_576 () Bool (= nB1 call__main_.nB1))
(define-fun .def_573 () Bool (= nB0 call__main_.nB0))
(define-fun .def_569 () Bool (not call_Sofar.Sofar))
(define-fun .def_570 () Bool (or flby2 .def_569))
(define-fun .def_571 () Bool (= _OK_ .def_570))
(define-fun .def_574 () Bool (and .def_571 .def_573))
(define-fun .def_577 () Bool (and .def_574 .def_576))
(define-fun .def_580 () Bool (and .def_577 .def_579))
(define-fun .def_583 () Bool (and .def_580 .def_582))
(define-fun .def_587 () Bool (and .def_583 .def_586))
(define-fun .def_591 () Bool (and .def_587 .def_590))
(define-fun .def_595 () Bool (and .def_591 .def_594))
(define-fun .def_599 () Bool (and .def_595 .def_598))
(define-fun .def_603 () Bool (and .def_599 .def_602))
(define-fun .def_606 () Bool (and .def_603 .def_605))
(define-fun .def_609 () Bool (and .def_606 .def_608))
(define-fun .def_614 () Bool (and .def_609 .def_613))
(define-fun .def_616 () Bool (and .def_614 .def_615))
(define-fun .def_618 () Bool (and .def_616 .def_617))
(define-fun .def_620 () Bool (and .def_618 .def_619))
(define-fun .def_623 () Bool (and .def_620 .def_622))
(define-fun .def_626 () Bool (and .def_623 .def_625))
(define-fun .def_629 () Bool (and .def_626 .def_628))
(define-fun .def_632 () Bool (and .def_629 .def_631))
(define-fun .def_635 () Bool (and .def_632 .def_634))
(define-fun .def_638 () Bool (and .def_635 .def_637))
(define-fun .def_641 () Bool (and .def_638 .def_640))
(define-fun .def_644 () Bool (and .def_641 .def_643))
(define-fun .def_646 () Bool (and .def_644 .def_645))
(define-fun .def_649 () Bool (and .def_646 .def_648))
(define-fun .def_651 () Bool (and .def_649 .def_650))
(define-fun .def_654 () Bool (and .def_651 .def_653))
(define-fun .def_663 () Bool (and .def_654 .def_662))
(define-fun .def_665 () Bool (and .def_663 .def_664))
(define-fun .def_667 () Bool (and .def_665 .def_666))
(define-fun .def_675 () Bool (and .def_667 .def_674))
(define-fun .def_677 () Bool (and .def_675 .def_676))
(define-fun .def_679 () Bool (and .def_677 .def_678))
(define-fun .def_681 () Bool (and .def_679 .def_680))
(define-fun .def_564 () Bool (not call__main_.call_controleur2.flby2))
(define-fun .def_561 () Bool (not call__main_.call_controleur2.flby))
(define-fun .def_558 () Bool (not call__main_.call_controleur.flby2))
(define-fun .def_555 () Bool (not call__main_.call_controleur.flby))
(define-fun .def_552 () Bool (= call__main_.call_hypothese2.flby2 0))
(define-fun .def_547 () Bool (= call__main_.call_hypothese.flby2 0))
(define-fun .def_542 () Bool (= call__main_.flby3 0))
(define-fun .def_539 () Bool (= call__main_.flby2 0))
(define-fun .def_536 () Bool (= call__main_.flby 0))
(define-fun .def_534 () Bool (and flby2 flby))
(define-fun .def_537 () Bool (and .def_534 .def_536))
(define-fun .def_540 () Bool (and .def_537 .def_539))
(define-fun .def_543 () Bool (and .def_540 .def_542))
(define-fun .def_545 () Bool (and .def_543 call__main_.call_hypothese.flby))
(define-fun .def_548 () Bool (and .def_545 .def_547))
(define-fun .def_550 () Bool (and .def_548 call__main_.call_hypothese2.flby))
(define-fun .def_553 () Bool (and .def_550 .def_552))
(define-fun .def_556 () Bool (and .def_553 .def_555))
(define-fun .def_559 () Bool (and .def_556 .def_558))
(define-fun .def_562 () Bool (and .def_559 .def_561))
(define-fun .def_565 () Bool (and .def_562 .def_564))
(define-fun .def_527 () Bool (<= 32767 diff0))
(define-fun .def_528 () Bool (not .def_527))
(define-fun .def_523 () Bool (<= 1 nS))
(define-fun .def_524 () Bool (not .def_523))
(define-fun .def_519 () Bool (<= 1 nB1))
(define-fun .def_520 () Bool (not .def_519))
(define-fun .def_514 () Bool (<= 1 nB0))
(define-fun .def_515 () Bool (not .def_514))
(define-fun .def_517 () Bool (and .def_515 ast))
(define-fun .def_521 () Bool (and .def_517 .def_520))
(define-fun .def_525 () Bool (and .def_521 .def_524))
(define-fun .def_529 () Bool (and .def_525 .def_528))
(define-fun .def_531 () Bool (= .def_529 call_Sofar.flby))
(define-fun .def_566 () Bool (and .def_531 .def_565))
(define-fun .def_682 () Bool (and .def_566 .def_681))
(assert .def_682)
